benchmarks/bfuzz0/255363027828848166472254328191161380.smt2
(set-logic QF_FP)
(declare-const x0 (_ FloatingPoint 8 24))
(declare-const x1 (_ FloatingPoint 8 24))
(declare-const x2 (_ FloatingPoint 8 24))
(declare-const x3 (_ FloatingPoint 8 24))
(declare-const x4 (_ FloatingPoint 8 24))
(declare-const x5 (_ FloatingPoint 8 24))
(declare-const x6 (_ FloatingPoint 8 24))
(declare-const x7 (_ FloatingPoint 8 24))
(declare-const x8 (_ FloatingPoint 8 24))
(declare-const x9 (_ FloatingPoint 8 24))
(declare-const x10 (_ FloatingPoint 8 24))
(declare-const x11 (_ FloatingPoint 8 24))
(declare-const x12 (_ FloatingPoint 8 24))
(declare-const x13 (_ FloatingPoint 8 24))
(declare-const x14 (_ FloatingPoint 8 24))
(declare-const x15 (_ FloatingPoint 8 24))
(declare-const x16 (_ FloatingPoint 8 24))
(declare-const x17 (_ FloatingPoint 8 24))
(declare-const x18 (_ FloatingPoint 8 24))
(declare-const x19 (_ FloatingPoint 8 24))
(declare-const x20 (_ FloatingPoint 8 24))
(declare-const x21 (_ FloatingPoint 8 24))
(declare-const x22 (_ FloatingPoint 8 24))
(declare-const x23 (_ FloatingPoint 8 24))
(assert (fp.leq (fp.add RNE x9 x17) (fp.div RNE x3 x14)))
(assert (fp.leq (fp.div RNE x8 x9) (fp.div RNE x6 x23)))
(assert (fp.leq (fp.sub RNE x13 x15) (fp.add RNE x16 x23)))
(assert (fp.gt (fp.div RNE x12 x20) (fp.div RNE x1 x17)))
(assert (fp.eq (fp.sub RNE x1 x14) (fp.neg x12)))
(assert (fp.eq (fp.div RNE x10 x14) (fp.neg x12)))
(assert (fp.geq (fp.mul RNE x12 x16) (fp.neg x18)))
(assert (fp.eq (fp.add RNE x4 x9) (fp.sub RNE x12 x22)))
(assert (fp.leq (fp.sub RNE x13 x10) (fp.neg x3)))
(assert (fp.leq (fp.add RNE x14 x7) (fp.div RNE x17 x15)))
(assert (fp.lt (fp.mul RNE x3 x5) (fp.div RNE x8 x1)))
(check-sat)
