db/data/255363027828848166472254328191161380.z3.out
sat
-------------------
476.094240603
